6

0   23   18   9   22   17
23   0   22   10   11   2
18   22   0   8   16   9
9   10   8   0   3   9
22  11   16   3   0   21
17   2   9   9   21   0

0   18   39   3   51   7
18   0   49   17   33   25
39   49   0   38   28   46
3   17   38   0   50   8
51   33   28   50   0   58
7   25   46   8   58   0